2H-MoS2                                 
   1.00000000000000     
     3.1837128707212963    0.0000000000000000    0.0000000000000000
    -1.5918564353606481    2.7572622300021057    0.0000000000000000
     0.0000000000000000    0.0000000000000000   26.8296405699999987
Mo S
 1 2
Direct
  0.0000009109980023  0.0000018219960046  0.0000000000000000
  0.3333328778343345  0.6666657556686619  0.9417701304615337
  0.3333328778343345  0.6666657556686619  0.0582298695384662
 
  0.00000000E+00  0.00000000E+00  0.00000000E+00
  0.00000000E+00  0.00000000E+00  0.00000000E+00
  0.00000000E+00  0.00000000E+00  0.00000000E+00
