generated by phonopy
   1.0
     6.3674257414425925    0.0000000000000000    0.0000000000000000
    -3.1837128707212963    5.5145244600042114    0.0000000000000000
     0.0000000000000000    0.0000000000000000   26.8296405699999987
 Mo S
 4 8
Direct
  0.0000004554990012  0.0000009109980023  0.0000000000000000
  0.5000004554990012  0.0000009109980023  0.0000000000000000
  0.0000004554990012  0.5000009109980023  0.0000000000000000
  0.5000004554990012  0.5000009109980023  0.0000000000000000
  0.1666664389171673  0.3333328778343310  0.9417701304615337
  0.6666664389171673  0.3333328778343310  0.9417701304615337
  0.1666664389171673  0.8333328778343310  0.9417701304615337
  0.6666664389171673  0.8333328778343310  0.9417701304615337
  0.1666664389171673  0.3333328778343310  0.0582298695384662
  0.6666664389171673  0.3333328778343310  0.0582298695384662
  0.1666664389171673  0.8333328778343310  0.0582298695384662
  0.6666664389171673  0.8333328778343310  0.0582298695384662
